PROBLEM NAME : sample_small_5cities
KNAPSACK DATA TYPE : uncorrelated
DIMENSION : 5
NUMBER OF ITEMS : 6
CAPACITY OF KNAPSACK : 80
MIN SPEED : 0.1
MAX SPEED : 1.0
RENTING RATIO : 0.5
EDGE_WEIGHT_TYPE : CEIL_2D
NODE_COORD_SECTION
1 10 20
2 30 40
3 50 10
4 40 50
5 20 5
ITEMS SECTION
1 60 15 2
2 40 10 2
3 80 25 3
4 30 8 4
5 50 20 5
6 20 5 1
